(declare-const return Int)
(declare-const param1@width Int)
(declare-const return@width Int)
(declare-const term_to_project_onto9 Real)
(declare-const term_to_project_onto12 Real)
(declare-const param2 Int)
(declare-const gl_list.4@pos Int)
(declare-const term_to_project_onto6 Real)
(declare-const term_to_project_onto1 Real)
(declare-const term_to_project_onto2 Real)
(declare-const term_to_project_onto16 Real)
(declare-const term_to_project_onto15 Real)
(declare-const param0@pos Int)
(declare-const term_to_project_onto10 Real)
(declare-const term_to_project_onto8 Real)
(declare-const term_to_project_onto5 Real)
(declare-const tmp___0 Int)
(declare-const param1 Int)
(declare-const term_to_project_onto3 Real)
(declare-const param1@pos Int)
(declare-const term_to_project_onto11 Real)
(declare-const term_to_project_onto13 Real)
(declare-const gl_list.next@pos Int)
(declare-const term_to_project_onto14 Real)
(declare-const term_to_project_onto7 Real)
(declare-const gl_list.4@width Int)
(declare-const return@pos Int)
(declare-const gl_list.4 Int)
(declare-const term_to_project_onto Real)
(declare-const term_to_project_onto4 Real)
(declare-const gl_list.next Int)
(declare-const param2@width Int)
(declare-const param0@width Int)
(declare-const param0 Int)
(declare-const param2@pos Int)
(declare-const term_to_project_onto0 Real)
(declare-const gl_list.next@width Int)
(declare-const term_to_project_onto17 Real)
(assert (exists
         ((|param2@width'?1| Int) (|param1@width'?2| Int)
            (|param0@width'?3| Int) (|return@width'?4| Int)
            (|gl_list.4@width'?5| Int) (|gl_list.next@width'?6| Int)
            (|param2@pos'?7| Int) (|param1@pos'?8| Int) (|param0@pos'?9| Int)
            (|return@pos'?10| Int) (|gl_list.4@pos'?11| Int)
            (|gl_list.next@pos'?12| Int) (|param2'?13| Int)
            (|param1'?14| Int) (|param0'?15| Int) (|return'?16| Int)
            (|tmp___0'?17| Int) (|gl_list.4'?18| Int)
            (|gl_list.next'?19| Int) (havoc?20 Int) (type_err?21 Int)
            (type_err?22 Int) (type_err?23 Int) (store?24 Int) (store?25 Int)
            (type_err?26 Int) (type_err?27 Int) (type_err?28 Int)
            (store?29 Int) (store?30 Int) (tr?31 Int) (tr?32 Int)
            (havoc?33 Int) (store?34 Int) (store?35 Int) (alloc?36 Int))
         (and (or (< alloc?36 0) (< (- alloc?36) 0))
                (or (<= (+ havoc?20 1) 0) (<= (+ (- havoc?20) 1) 0))
                (= (+ (- type_err?21) |param2@width'?1|) 0)
                (= (+ |param1@width'?2| -1) 0)
                (= (+ (- type_err?22) |param0@width'?3|) 0)
                (= (+ (- type_err?23) |return@width'?4|) 0)
                (= (+ (- store?24) |gl_list.4@width'?5|) 0)
                (= (+ (- store?25) |gl_list.next@width'?6|) 0)
                (= (+ (- type_err?26) |param2@pos'?7|) 0)
                (= |param1@pos'?8| 0)
                (= (+ (- type_err?27) |param0@pos'?9|) 0)
                (= (+ (- type_err?28) |return@pos'?10|) 0)
                (= (+ (- store?29) |gl_list.4@pos'?11|) 0)
                (= (+ (- store?30) |gl_list.next@pos'?12|) 0)
                (= (+ (- tr?31) |param2'?13|) 0)
                (= (+ (- tr?32) |param1'?14|) 0)
                (= (+ |param0'?15| (- alloc?36) -4) 0)
                (= (+ (- havoc?33) |return'?16|) 0)
                (= (+ |tmp___0'?17| (- havoc?20)) 0)
                (= (+ (- store?34) |gl_list.4'?18|) 0)
                (= (+ (- store?35) |gl_list.next'?19|) 0)
                (= term_to_project_onto17 (+ |gl_list.next'?19|
                                               (- gl_list.next)))
                (= term_to_project_onto16 (+ |gl_list.4'?18| (- gl_list.4)))
                (= term_to_project_onto15 (+ |tmp___0'?17| (- tmp___0)))
                (= term_to_project_onto14 (+ |return'?16| (- return)))
                (= term_to_project_onto13 (+ |param0'?15| (- param0)))
                (= term_to_project_onto12 (+ |param1'?14| (- param1)))
                (= term_to_project_onto11 (+ |param2'?13| (- param2)))
                (= term_to_project_onto10 (+ |gl_list.next@pos'?12|
                                               (- gl_list.next@pos)))
                (= term_to_project_onto9 (+ |gl_list.4@pos'?11|
                                              (- gl_list.4@pos)))
                (= term_to_project_onto8 (+ |return@pos'?10| (- return@pos)))
                (= term_to_project_onto7 (+ |param0@pos'?9| (- param0@pos)))
                (= term_to_project_onto6 (+ |param1@pos'?8| (- param1@pos)))
                (= term_to_project_onto5 (+ |param2@pos'?7| (- param2@pos)))
                (= term_to_project_onto4 (+ |gl_list.next@width'?6|
                                              (- gl_list.next@width)))
                (= term_to_project_onto3 (+ |gl_list.4@width'?5|
                                              (- gl_list.4@width)))
                (= term_to_project_onto2 (+ |return@width'?4|
                                              (- return@width)))
                (= term_to_project_onto1 (+ |param0@width'?3|
                                              (- param0@width)))
                (= term_to_project_onto0 (+ |param1@width'?2|
                                              (- param1@width)))
                (= term_to_project_onto (+ |param2@width'?1| (- param2@width))))))
(check-sat)
